% File represents an instance of a Composite Structure problem to be solved by a CP framework
% Created on 2025-03-26 10:41:58.294
T = 58;
n = 36;
m = 60;
edges = [(2, 1),
(7, 8),
(13, 14),
(19, 20),
(25, 26),
(32, 31),
(3, 2),
(9, 8),
(15, 14),
(21, 20),
(26, 27),
(32, 33),
(3, 4),
(10, 9),
(16, 15),
(21, 22),
(28, 27),
(34, 33),
(4, 5),
(10, 11),
(17, 16),
(23, 22),
(28, 29),
(35, 34),
(5, 6),
(11, 12),
(17, 18),
(24, 23),
(30, 29),
(36, 35),
(7, 1),
(7, 13),
(19, 13),
(25, 19),
(25, 31),
(8, 2),
(8, 14),
(20, 14),
(26, 20),
(32, 26),
(3, 9),
(9, 15),
(21, 15),
(21, 27),
(27, 33),
(10, 4),
(10, 16),
(16, 22),
(28, 22),
(28, 34),
(11, 5),
(17, 11),
(17, 23),
(23, 29),
(35, 29),
(12, 6),
(18, 12),
(24, 18),
(24, 30),
(36, 30)];
counts = [|18, 6, 18, 2,
|18, 8, 18, 2,
|18, 12, 18, 4,
|18, 12, 18, 2,
|18, 8, 18, 2,
|16, 8, 16, 2,
|18, 12, 18, 2,
|18, 10, 18, 2,
|18, 12, 18, 2,
|18, 16, 18, 4,
|18, 14, 18, 2,
|18, 8, 18, 2,
|16, 12, 16, 2,
|16, 10, 16, 2,
|16, 12, 16, 2,
|18, 14, 18, 2,
|18, 14, 18, 4,
|18, 12, 18, 4,
|16, 18, 16, 2,
|16, 14, 16, 2,
|16, 16, 16, 4,
|16, 12, 16, 2,
|18, 14, 18, 2,
|18, 18, 18, 4,
|16, 18, 16, 4,
|16, 16, 16, 2,
|16, 14, 16, 2,
|16, 18, 16, 2,
|16, 14, 16, 2,
|18, 14, 18, 4,
|16, 12, 16, 4,
|16, 16, 16, 4,
|16, 12, 16, 2,
|16, 14, 16, 2,
|16, 16, 16, 2,
|18, 16, 18, 4|];
